letting n =  10
letting blocks =  [[1, 3], [1, 5], [1, 6], [1, 7], [1, 8], [1, 9], [2, 2], [2, 4], [2, 5], [2, 6], [2, 7], [3, 2], [3, 3], [3, 4], [3, 9], [3, 10], [4, 3], [4, 4], [4, 5], [4, 6], [4, 8], [4, 9], [5, 1], [5, 2], [5, 4], [5, 7], [5, 8], [5, 10], [6, 1], [6, 2], [6, 3], [6, 8], [6, 9], [6, 10], [7, 1], [7, 2], [7, 3], [7, 5], [7, 6], [7, 7], [8, 1], [8, 4], [8, 6], [8, 7], [8, 9], [8, 10], [9, 1], [9, 3], [9, 5], [9, 8], [9, 9], [9, 10], [10, 1], [10, 2], [10, 4], [10, 5], [10, 7], [10, 8]]
